c nIsolatedPIs 4
c maxPI 16
p cnf 220 613
c gate 17 1 15 0
1 -17 0
15 -17 0
-1 -15 17 0
c gate 18 3 12 0
3 -18 0
12 -18 0
-3 -12 18 0
c gate 19 2 13 0
2 -19 0
13 -19 0
-2 -13 19 0
c gate 20 18 19 0
18 -20 0
19 -20 0
-18 -19 20 0
c gate 21 1 14 0
1 -21 0
14 -21 0
-1 -14 21 0
c gate 22 -18 -19 0
-18 -22 0
-19 -22 0
18 19 22 0
c gate 23 -20 -22 0
-20 -23 0
-22 -23 0
20 22 23 0
c gate 24 21 23 0
21 -24 0
23 -24 0
-21 -23 24 0
c gate 25 -20 -24 0
-20 -25 0
-24 -25 0
20 24 25 0
c gate 26 17 -25 0
17 -26 0
-25 -26 0
-17 25 26 0
c gate 27 4 11 0
4 -27 0
11 -27 0
-4 -11 27 0
c gate 28 6 9 0
6 -28 0
9 -28 0
-6 -9 28 0
c gate 29 5 10 0
5 -29 0
10 -29 0
-5 -10 29 0
c gate 30 28 29 0
28 -30 0
29 -30 0
-28 -29 30 0
c gate 31 -28 -29 0
-28 -31 0
-29 -31 0
28 29 31 0
c gate 32 -30 -31 0
-30 -32 0
-31 -32 0
30 31 32 0
c gate 33 27 32 0
27 -33 0
32 -33 0
-27 -32 33 0
c gate 34 -27 -32 0
-27 -34 0
-32 -34 0
27 32 34 0
c gate 35 -33 -34 0
-33 -35 0
-34 -35 0
33 34 35 0
c gate 36 5 9 0
5 -36 0
9 -36 0
-5 -9 36 0
c gate 37 4 10 0
4 -37 0
10 -37 0
-4 -10 37 0
c gate 38 -36 -37 0
-36 -38 0
-37 -38 0
36 37 38 0
c gate 39 3 11 0
3 -39 0
11 -39 0
-3 -11 39 0
c gate 40 36 37 0
36 -40 0
37 -40 0
-36 -37 40 0
c gate 41 -38 -40 0
-38 -41 0
-40 -41 0
38 40 41 0
c gate 42 -39 41 0
-39 -42 0
41 -42 0
39 -41 42 0
c gate 43 -38 -42 0
-38 -43 0
-42 -43 0
38 42 43 0
c gate 44 35 43 0
35 -44 0
43 -44 0
-35 -43 44 0
c gate 45 -21 -23 0
-21 -45 0
-23 -45 0
21 23 45 0
c gate 46 -24 -45 0
-24 -46 0
-45 -46 0
24 45 46 0
c gate 47 -35 -43 0
-35 -47 0
-43 -47 0
35 43 47 0
c gate 48 -44 -47 0
-44 -48 0
-47 -48 0
44 47 48 0
c gate 49 46 48 0
46 -49 0
48 -49 0
-46 -48 49 0
c gate 50 -44 -49 0
-44 -50 0
-49 -50 0
44 49 50 0
c gate 51 -30 -33 0
-30 -51 0
-33 -51 0
30 33 51 0
c gate 52 7 9 0
7 -52 0
9 -52 0
-7 -9 52 0
c gate 53 6 10 0
6 -53 0
10 -53 0
-6 -10 53 0
c gate 54 -52 -53 0
-52 -54 0
-53 -54 0
52 53 54 0
c gate 55 52 53 0
52 -55 0
53 -55 0
-52 -53 55 0
c gate 56 -54 -55 0
-54 -56 0
-55 -56 0
54 55 56 0
c gate 57 5 11 0
5 -57 0
11 -57 0
-5 -11 57 0
c gate 58 56 -57 0
56 -58 0
-57 -58 0
-56 57 58 0
c gate 59 -56 57 0
-56 -59 0
57 -59 0
56 -57 59 0
c gate 60 -58 -59 0
-58 -60 0
-59 -60 0
58 59 60 0
c gate 61 51 60 0
51 -61 0
60 -61 0
-51 -60 61 0
c gate 62 -51 -60 0
-51 -62 0
-60 -62 0
51 60 62 0
c gate 63 -61 -62 0
-61 -63 0
-62 -63 0
61 62 63 0
c gate 64 2 14 0
2 -64 0
14 -64 0
-2 -14 64 0
c gate 65 4 12 0
4 -65 0
12 -65 0
-4 -12 65 0
c gate 66 3 13 0
3 -66 0
13 -66 0
-3 -13 66 0
c gate 67 -65 -66 0
-65 -67 0
-66 -67 0
65 66 67 0
c gate 68 65 66 0
65 -68 0
66 -68 0
-65 -66 68 0
c gate 69 -67 -68 0
-67 -69 0
-68 -69 0
67 68 69 0
c gate 70 64 69 0
64 -70 0
69 -70 0
-64 -69 70 0
c gate 71 -64 -69 0
-64 -71 0
-69 -71 0
64 69 71 0
c gate 72 -70 -71 0
-70 -72 0
-71 -72 0
70 71 72 0
c gate 73 63 -72 0
63 -73 0
-72 -73 0
-63 72 73 0
c gate 74 -63 72 0
-63 -74 0
72 -74 0
63 -72 74 0
c gate 75 -73 -74 0
-73 -75 0
-74 -75 0
73 74 75 0
c gate 76 -50 -75 0
-50 -76 0
-75 -76 0
50 75 76 0
c gate 77 50 75 0
50 -77 0
75 -77 0
-50 -75 77 0
c gate 78 -76 -77 0
-76 -78 0
-77 -78 0
76 77 78 0
c gate 79 -17 25 0
-17 -79 0
25 -79 0
17 -25 79 0
c gate 80 -26 -79 0
-26 -80 0
-79 -80 0
26 79 80 0
c gate 81 78 80 0
78 -81 0
80 -81 0
-78 -80 81 0
c gate 82 -76 -81 0
-76 -82 0
-81 -82 0
76 81 82 0
c gate 83 2 15 0
2 -83 0
15 -83 0
-2 -15 83 0
c gate 84 1 16 0
1 -84 0
16 -84 0
-1 -16 84 0
c gate 85 83 84 0
83 -85 0
84 -85 0
-83 -84 85 0
c gate 86 -83 -84 0
-83 -86 0
-84 -86 0
83 84 86 0
c gate 87 -85 -86 0
-85 -87 0
-86 -87 0
85 86 87 0
c gate 88 -68 -70 0
-68 -88 0
-70 -88 0
68 70 88 0
c gate 89 -87 88 0
-87 -89 0
88 -89 0
87 -88 89 0
c gate 90 87 -88 0
87 -90 0
-88 -90 0
-87 88 90 0
c gate 91 -89 -90 0
-89 -91 0
-90 -91 0
89 90 91 0
c gate 92 3 14 0
3 -92 0
14 -92 0
-3 -14 92 0
c gate 93 5 12 0
5 -93 0
12 -93 0
-5 -12 93 0
c gate 94 4 13 0
4 -94 0
13 -94 0
-4 -13 94 0
c gate 95 -93 -94 0
-93 -95 0
-94 -95 0
93 94 95 0
c gate 96 93 94 0
93 -96 0
94 -96 0
-93 -94 96 0
c gate 97 -95 -96 0
-95 -97 0
-96 -97 0
95 96 97 0
c gate 98 -92 -97 0
-92 -98 0
-97 -98 0
92 97 98 0
c gate 99 92 97 0
92 -99 0
97 -99 0
-92 -97 99 0
c gate 100 -98 -99 0
-98 -100 0
-99 -100 0
98 99 100 0
c gate 101 6 11 0
6 -101 0
11 -101 0
-6 -11 101 0
c gate 102 8 9 0
8 -102 0
9 -102 0
-8 -9 102 0
c gate 103 7 10 0
7 -103 0
10 -103 0
-7 -10 103 0
c gate 104 102 103 0
102 -104 0
103 -104 0
-102 -103 104 0
c gate 105 -102 -103 0
-102 -105 0
-103 -105 0
102 103 105 0
c gate 106 -104 -105 0
-104 -106 0
-105 -106 0
104 105 106 0
c gate 107 101 106 0
101 -107 0
106 -107 0
-101 -106 107 0
c gate 108 -101 -106 0
-101 -108 0
-106 -108 0
101 106 108 0
c gate 109 -107 -108 0
-107 -109 0
-108 -109 0
107 108 109 0
c gate 110 -54 -58 0
-54 -110 0
-58 -110 0
54 58 110 0
c gate 111 109 110 0
109 -111 0
110 -111 0
-109 -110 111 0
c gate 112 -109 -110 0
-109 -112 0
-110 -112 0
109 110 112 0
c gate 113 -111 -112 0
-111 -113 0
-112 -113 0
111 112 113 0
c gate 114 100 113 0
100 -114 0
113 -114 0
-100 -113 114 0
c gate 115 -100 -113 0
-100 -115 0
-113 -115 0
100 113 115 0
c gate 116 -114 -115 0
-114 -116 0
-115 -116 0
114 115 116 0
c gate 117 -61 -73 0
-61 -117 0
-73 -117 0
61 73 117 0
c gate 118 116 117 0
116 -118 0
117 -118 0
-116 -117 118 0
c gate 119 -116 -117 0
-116 -119 0
-117 -119 0
116 117 119 0
c gate 120 -118 -119 0
-118 -120 0
-119 -120 0
118 119 120 0
c gate 121 91 120 0
91 -121 0
120 -121 0
-91 -120 121 0
c gate 122 -91 -120 0
-91 -122 0
-120 -122 0
91 120 122 0
c gate 123 -121 -122 0
-121 -123 0
-122 -123 0
121 122 123 0
c gate 124 -82 123 0
-82 -124 0
123 -124 0
82 -123 124 0
c gate 125 82 -123 0
82 -125 0
-123 -125 0
-82 123 125 0
c gate 126 -124 -125 0
-124 -126 0
-125 -126 0
124 125 126 0
c gate 127 -26 -126 0
-26 -127 0
-126 -127 0
26 126 127 0
c gate 128 4 9 0
4 -128 0
9 -128 0
-4 -9 128 0
c gate 129 3 10 0
3 -129 0
10 -129 0
-3 -10 129 0
c gate 130 128 129 0
128 -130 0
129 -130 0
-128 -129 130 0
c gate 131 -128 -129 0
-128 -131 0
-129 -131 0
128 129 131 0
c gate 132 -130 -131 0
-130 -132 0
-131 -132 0
130 131 132 0
c gate 133 2 11 0
2 -133 0
11 -133 0
-2 -11 133 0
c gate 134 132 133 0
132 -134 0
133 -134 0
-132 -133 134 0
c gate 135 -130 -134 0
-130 -135 0
-134 -135 0
130 134 135 0
c gate 136 39 -41 0
39 -136 0
-41 -136 0
-39 41 136 0
c gate 137 -42 -136 0
-42 -137 0
-136 -137 0
42 136 137 0
c gate 138 -135 -137 0
-135 -138 0
-137 -138 0
135 137 138 0
c gate 139 135 137 0
135 -139 0
137 -139 0
-135 -137 139 0
c gate 140 -138 -139 0
-138 -140 0
-139 -140 0
138 139 140 0
c gate 141 2 12 0
2 -141 0
12 -141 0
-2 -12 141 0
c gate 142 1 13 0
1 -142 0
13 -142 0
-1 -13 142 0
c gate 143 -141 -142 0
-141 -143 0
-142 -143 0
141 142 143 0
c gate 144 141 142 0
141 -144 0
142 -144 0
-141 -142 144 0
c gate 145 -143 -144 0
-143 -145 0
-144 -145 0
143 144 145 0
c gate 146 140 145 0
140 -146 0
145 -146 0
-140 -145 146 0
c gate 147 -138 -146 0
-138 -147 0
-146 -147 0
138 146 147 0
c gate 148 -46 -48 0
-46 -148 0
-48 -148 0
46 48 148 0
c gate 149 -49 -148 0
-49 -149 0
-148 -149 0
49 148 149 0
c gate 150 -147 149 0
-147 -150 0
149 -150 0
147 -149 150 0
c gate 151 -78 -80 0
-78 -151 0
-80 -151 0
78 80 151 0
c gate 152 -81 -151 0
-81 -152 0
-151 -152 0
81 151 152 0
c gate 153 150 152 0
150 -153 0
152 -153 0
-150 -152 153 0
c gate 154 127 -153 0
127 -154 0
-153 -154 0
-127 153 154 0
c gate 155 147 -149 0
147 -155 0
-149 -155 0
-147 149 155 0
c gate 156 -150 -155 0
-150 -156 0
-155 -156 0
150 155 156 0
c gate 157 144 156 0
144 -157 0
156 -157 0
-144 -156 157 0
c gate 158 -150 -157 0
-150 -158 0
-157 -158 0
150 157 158 0
c gate 159 152 -158 0
152 -159 0
-158 -159 0
-152 158 159 0
c gate 160 -150 -152 0
-150 -160 0
-152 -160 0
150 152 160 0
c gate 161 -157 160 0
-157 -161 0
160 -161 0
157 -160 161 0
c gate 162 -159 -161 0
-159 -162 0
-161 -162 0
159 161 162 0
c gate 163 -144 -156 0
-144 -163 0
-156 -163 0
144 156 163 0
c gate 164 -132 -133 0
-132 -164 0
-133 -164 0
132 133 164 0
c gate 165 -134 -164 0
-134 -165 0
-164 -165 0
134 164 165 0
c gate 166 3 9 0
3 -166 0
9 -166 0
-3 -9 166 0
c gate 167 2 10 0
2 -167 0
10 -167 0
-2 -10 167 0
c gate 168 1 11 0
1 -168 0
11 -168 0
-1 -11 168 0
c gate 169 167 168 0
167 -169 0
168 -169 0
-167 -168 169 0
c gate 170 -166 -169 0
-166 -170 0
-169 -170 0
166 169 170 0
c gate 171 -167 -168 0
-167 -171 0
-168 -171 0
167 168 171 0
c gate 172 -170 -171 0
-170 -172 0
-171 -172 0
170 171 172 0
c gate 173 165 172 0
165 -173 0
172 -173 0
-165 -172 173 0
c gate 174 1 12 0
1 -174 0
12 -174 0
-1 -12 174 0
c gate 175 -165 -172 0
-165 -175 0
-172 -175 0
165 172 175 0
c gate 176 -173 -175 0
-173 -176 0
-175 -176 0
173 175 176 0
c gate 177 174 176 0
174 -177 0
176 -177 0
-174 -176 177 0
c gate 178 -173 -177 0
-173 -178 0
-177 -178 0
173 177 178 0
c gate 179 -140 -145 0
-140 -179 0
-145 -179 0
140 145 179 0
c gate 180 -146 -179 0
-146 -180 0
-179 -180 0
146 179 180 0
c gate 181 178 -180 0
178 -181 0
-180 -181 0
-178 180 181 0
c gate 182 -178 180 0
-178 -182 0
180 -182 0
178 -180 182 0
c gate 183 -174 -176 0
-174 -183 0
-176 -183 0
174 176 183 0
c gate 184 -3 -11 0
-3 -184 0
-11 -184 0
3 11 184 0
c gate 185 -39 -184 0
-39 -185 0
-184 -185 0
39 184 185 0
c gate 186 1 9 0
1 -186 0
9 -186 0
-1 -9 186 0
c gate 187 167 186 0
167 -187 0
186 -187 0
-167 -186 187 0
c gate 188 -185 187 0
-185 -188 0
187 -188 0
185 -187 188 0
c gate 189 -177 188 0
-177 -189 0
188 -189 0
177 -188 189 0
c gate 190 -183 189 0
-183 -190 0
189 -190 0
183 -189 190 0
c gate 191 -182 190 0
-182 -191 0
190 -191 0
182 -190 191 0
c gate 192 -181 191 0
-181 -192 0
191 -192 0
181 -191 192 0
c gate 193 -157 192 0
-157 -193 0
192 -193 0
157 -192 193 0
c gate 194 -163 193 0
-163 -194 0
193 -194 0
163 -193 194 0
c gate 195 162 194 0
162 -195 0
194 -195 0
-162 -194 195 0
c gate 196 26 126 0
26 -196 0
126 -196 0
-26 -126 196 0
c gate 197 -127 -196 0
-127 -197 0
-196 -197 0
127 196 197 0
c gate 198 -163 182 0
-163 -198 0
182 -198 0
163 -182 198 0
c gate 199 -157 198 0
-157 -199 0
198 -199 0
157 -198 199 0
c gate 200 -160 199 0
-160 -200 0
199 -200 0
160 -199 200 0
c gate 201 -159 -200 0
-159 -201 0
-200 -201 0
159 200 201 0
c gate 202 197 -201 0
197 -202 0
-201 -202 0
-197 201 202 0
c gate 203 -197 201 0
-197 -203 0
201 -203 0
197 -201 203 0
c gate 204 -202 -203 0
-202 -204 0
-203 -204 0
202 203 204 0
c gate 205 195 204 0
195 -205 0
204 -205 0
-195 -204 205 0
c gate 206 -195 -204 0
-195 -206 0
-204 -206 0
195 204 206 0
c gate 207 -205 -206 0
-205 -207 0
-206 -207 0
205 206 207 0
c gate 208 -154 207 0
-154 -208 0
207 -208 0
154 -207 208 0
c gate 209 154 -207 0
154 -209 0
-207 -209 0
-154 207 209 0
c gate 210 -208 -209 0
-208 -210 0
-209 -210 0
208 209 210 0
c gate 211 -194 -199 0
-194 -211 0
-199 -211 0
194 199 211 0
c gate 212 162 211 0
162 -212 0
211 -212 0
-162 -211 212 0
c gate 213 -153 -160 0
-153 -213 0
-160 -213 0
153 160 213 0
c gate 214 -198 -213 0
-198 -214 0
-213 -214 0
198 213 214 0
c gate 215 -162 -211 0
-162 -215 0
-211 -215 0
162 211 215 0
c gate 216 -214 -215 0
-214 -216 0
-215 -216 0
214 215 216 0
c gate 217 -212 216 0
-212 -217 0
216 -217 0
212 -216 217 0
c gate 218 210 217 0
210 -218 0
217 -218 0
-210 -217 218 0
c gate 219 -210 -217 0
-210 -219 0
-217 -219 0
210 217 219 0
c gate 220 -218 -219 0
-218 -220 0
-219 -220 0
218 219 220 0
c PO
220 0
